StudentsNr = 15;
InstructorsNr = 10;
DaysNr = 2;
SlotsPerDay = 10;
RoomNr = 2;
ProgrammNr = 2;
DegreeNr = 1;
RolesNr = 2;
CoursesNr = 3;
InstructorsId = {1, 2, 3, 4, 5, 6, 7, 8, 9, 10};
InstructorsProgramm = [{2}, {2}, {2}, {2}, {2}, {1}, {2}, {1}, {2}, {2}];
InstructorsRoles = [{2}, {2}, {}, {}, {1}, {}, {1, 2}, {1}, {}, {1, 2}];
InstructorsAvailability = [|0, 0, 1, 1, 0, 1, 1, 1, 1, 1, |1, 1, 1, 1, 1, 1, 1, 1, 0, 0, |0, 0, 1, 1, 1, 1, 1, 1, 1, 0, |1, 1, 1, 1, 1, 1, 1, 1, 0, 1, |0, 0, 0, 1, 1, 1, 1, 1, 0, 1, |0, 0, 0, 1, 0, 1, 0, 0, 1, 1, |0, 1, 1, 0, 1, 1, 0, 0, 1, 1, |1, 0, 1, 1, 1, 1, 1, 1, 1, 1, |1, 1, 1, 1, 1, 1, 1, 0, 0, 1, |0, 0, 1, 1, 0, 1, 1, 1, 1, 1|];
StudentsId = {1, 2, 3, 4, 5, 6, 7, 8, 9, 10, 11, 12, 13, 14, 15};
StudentsProgramm = [2, 2, 2, 1, 1, 2, 2, 2, 2, 2, 1, 1, 1, 1, 1];
StudentsDegree = [1, 1, 1, 1, 1, 1, 1, 1, 1, 1, 1, 1, 1, 1, 1];
StudentsSupervisorId = [2, 9, 10, 8, 6, 5, 2, 1, 2, 1, 8, 8, 8, 8, 8];
StudentsCourseIds = [{1, 2}, {1, 3}, {1, 3}, {1, 2}, {1, 3}, {1, 2}, {1, 3}, {1, 2}, {1, 2}, {1, 2}, {1, 2}, {1, 3}, {1, 2}, {1, 3}, {2, 3}];
StudentsAvailability = [|0, 0, 0, 0, 1, 1, 0, 1, 1, 0, |0, 1, 0, 0, 1, 1, 1, 1, 1, 1, |1, 1, 1, 1, 1, 1, 1, 1, 1, 1, |0, 0, 1, 1, 1, 1, 1, 1, 1, 1, |1, 1, 1, 0, 0, 1, 1, 1, 1, 1, |1, 1, 1, 1, 1, 1, 1, 1, 1, 1, |1, 1, 1, 1, 1, 1, 1, 1, 1, 1, |0, 0, 0, 1, 1, 1, 1, 1, 1, 1, |1, 0, 0, 0, 0, 1, 1, 0, 1, 0, |0, 0, 0, 1, 0, 1, 1, 1, 1, 1, |0, 0, 1, 1, 1, 1, 1, 1, 1, 1, |1, 1, 1, 1, 1, 1, 1, 1, 1, 1, |1, 1, 1, 1, 1, 1, 0, 1, 1, 1, |0, 1, 1, 1, 1, 1, 0, 1, 1, 1, |1, 0, 1, 1, 1, 0, 1, 0, 0, 0|];
CoursesId = {1, 2, 3};
CoursesInstructorIds = [{1, 2, 3, 5, 6, 9}, {7}, {2, 3, 4, 5, 6, 8}];
